c generated by sgen
p cnf 49 108
-2 -3 -4 0
-1 -3 -4 0
-1 -2 -4 0
-1 -2 -3 0
-6 -7 -8 0
-5 -7 -8 0
-5 -6 -8 0
-5 -6 -7 0
-10 -11 -12 0
-9 -11 -12 0
-9 -10 -12 0
-9 -10 -11 0
-14 -15 -16 0
-13 -15 -16 0
-13 -14 -16 0
-13 -14 -15 0
-18 -19 -20 0
-17 -19 -20 0
-17 -18 -20 0
-17 -18 -19 0
-22 -23 -24 0
-21 -23 -24 0
-21 -22 -24 0
-21 -22 -23 0
-26 -27 -28 0
-25 -27 -28 0
-25 -26 -28 0
-25 -26 -27 0
-30 -31 -32 0
-29 -31 -32 0
-29 -30 -32 0
-29 -30 -31 0
-34 -35 -36 0
-33 -35 -36 0
-33 -34 -36 0
-33 -34 -35 0
-38 -39 -40 0
-37 -39 -40 0
-37 -38 -40 0
-37 -38 -39 0
-42 -43 -44 0
-41 -43 -44 0
-41 -42 -44 0
-41 -42 -43 0
-45 -46 -47 0
-45 -46 -48 0
-45 -46 -49 0
-45 -47 -48 0
-45 -47 -49 0
-45 -48 -49 0
-46 -47 -48 0
-46 -47 -49 0
-46 -48 -49 0
-47 -48 -49 0
30 33 9 0
49 33 9 0
49 30 9 0
49 30 33 0
31 28 7 0
20 28 7 0
20 31 7 0
20 31 28 0
34 29 22 0
1 29 22 0
1 34 22 0
1 34 29 0
36 46 6 0
43 46 6 0
43 36 6 0
43 36 46 0
3 14 18 0
10 14 18 0
10 3 18 0
10 3 14 0
41 26 24 0
11 26 24 0
11 41 24 0
11 41 26 0
15 35 39 0
27 35 39 0
27 15 39 0
27 15 35 0
48 25 38 0
2 25 38 0
2 48 38 0
2 48 25 0
8 21 40 0
12 21 40 0
12 8 40 0
12 8 21 0
37 32 19 0
44 32 19 0
44 37 19 0
44 37 32 0
16 45 23 0
17 45 23 0
17 16 23 0
17 16 45 0
13 5 47 0
13 5 4 0
13 5 42 0
13 47 4 0
13 47 42 0
13 4 42 0
5 47 4 0
5 47 42 0
5 4 42 0
47 4 42 0
